2	25
954	554	513	698	716	611	469	54	132	921	158	478	776	714	807	321	759	548	881	592	170	159	707	128	444	
579	60	250	584	56	517	621	337	13	632	456	817	679	664	127	288	379	290	991	900	711	832	532	807	677	
1600	1600	
